131
10000
3530
1739
3954
130
404
1467
2244
4516
1961
2996
1840
2386
1137
790
850
3697
3277
3548
1098
1542
1839
64
3201
4239
1279
2347
1638
3112
691
1156
3924
3008
2950
4952
4713
3005
862
926
1237
353
3740
1659
2803
1281
983
823
3426
3787
693
455
1419
4278
3101
1050
1016
2096
3853
703
2234
408
3736
1400
2881
288
3579
3621
270
4235
4504
1938
4812
3713
2542
4458
4148
4544
3598
852
1801
1588
4508
4194
3190
2113
1592
3835
551
1449
4986
437
2678
4913
1178
299
3637
4508
1929
1195
1261
1748
167
2419
451
430
1472
1955
40
736
3537
4542
2272
4380
4742
805
3277
1429
1848
2569
4573
2574
1
1283
2440
988
2975
2088
1248
88
2076
1592
3884
